33
[-1, 444, 0, 0, 253, 0, 0, 288, 0, 0, 0, 248, 0, 0, 0, 51, 0, 0, 0, 416, 104, 0, 0, 0, 431, 0, 0, 297, 0, 81, 340, 0, 0, 
444, -1, 102, 43, 0, 0, 150, 234, 110, 0, 235, 253, 0, 0, 0, 442, 0, 193, 0, 0, 0, 0, 0, 19, 76, 312, 0, 334, 137, 0, 0, 90, 0, 
0, 102, -1, 323, 0, 400, 0, 0, 41, 29, 0, 449, 0, 310, 0, 203, 0, 0, 0, 0, 0, 0, 0, 0, 0, 0, 0, 0, 323, 0, 0, 23, 0, 
0, 43, 323, -1, 351, 427, 0, 129, 333, 0, 0, 31, 100, 0, 485, 154, 0, 0, 0, 0, 187, 0, 151, 0, 287, 0, 24, 293, 0, 0, 307, 0, 172, 
253, 0, 0, 351, -1, 402, 436, 0, 271, 0, 0, 0, 0, 0, 0, 90, 0, 0, 83, 0, 167, 0, 65, 74, 0, 0, 356, 0, 168, 0, 71, 0, 249, 
0, 0, 400, 427, 402, -1, 0, 0, 462, 0, 0, 8, 0, 0, 147, 19, 453, 410, 0, 0, 0, 0, 0, 0, 23, 44, 315, 90, 293, 0, 0, 0, 249, 
0, 150, 0, 0, 436, 0, -1, 0, 0, 0, 484, 0, 0, 0, 310, 77, 268, 162, 0, 0, 0, 0, 66, 243, 0, 0, 60, 0, 0, 28, 153, 0, 0, 
288, 234, 0, 129, 0, 0, 0, -1, 69, 456, 123, 0, 432, 60, 0, 31, 0, 0, 161, 0, 0, 271, 0, 0, 141, 198, 24, 138, 4, 0, 344, 392, 349, 
0, 110, 41, 333, 271, 462, 0, 69, -1, 0, 0, 0, 60, 0, 210, 0, 221, 359, 0, 0, 0, 384, 0, 0, 0, 0, 189, 327, 0, 0, 9, 154, 0, 
0, 0, 29, 0, 0, 0, 0, 456, 0, -1, 0, 0, 67, 289, 424, 108, 457, 320, 0, 0, 0, 0, 0, 25, 448, 57, 240, 41, 329, 0, 20, 269, 0, 
0, 235, 0, 0, 0, 0, 484, 123, 0, 0, -1, 33, 274, 213, 112, 298, 0, 289, 0, 274, 0, 0, 0, 276, 11, 0, 376, 174, 0, 333, 0, 98, 0, 
248, 253, 449, 31, 0, 8, 0, 0, 0, 0, 33, -1, 362, 35, 0, 0, 385, 0, 115, 15, 0, 189, 293, 442, 157, 426, 0, 0, 0, 0, 22, 0, 0, 
0, 0, 0, 100, 0, 0, 0, 432, 60, 67, 274, 362, -1, 0, 19, 488, 210, 0, 400, 0, 227, 161, 0, 196, 0, 480, 166, 0, 395, 0, 186, 0, 0, 
0, 0, 310, 0, 0, 0, 0, 60, 0, 289, 213, 35, 0, -1, 73, 0, 106, 0, 0, 461, 222, 0, 61, 0, 0, 0, 35, 59, 0, 0, 0, 328, 79, 
0, 0, 0, 485, 0, 147, 310, 0, 210, 424, 112, 0, 19, 73, -1, 203, 10, 245, 0, 125, 0, 5, 0, 0, 341, 0, 0, 0, 0, 7, 157, 88, 0, 
51, 442, 203, 154, 90, 19, 77, 31, 0, 108, 298, 0, 488, 0, 203, -1, 42, 0, 200, 80, 314, 214, 0, 0, 74, 295, 388, 0, 454, 0, 0, 0, 0, 
0, 0, 0, 0, 0, 453, 268, 0, 221, 457, 0, 385, 210, 106, 10, 42, -1, 0, 0, 79, 0, 0, 0, 87, 404, 61, 480, 0, 351, 202, 0, 351, 25, 
0, 193, 0, 0, 0, 410, 162, 0, 359, 320, 289, 0, 0, 0, 245, 0, 0, -1, 0, 0, 0, 49, 68, 0, 190, 0, 25, 102, 8, 295, 0, 179, 44, 
0, 0, 0, 0, 83, 0, 0, 161, 0, 0, 0, 115, 400, 0, 0, 200, 0, 0, -1, 71, 354, 275, 445, 312, 82, 51, 399, 337, 0, 358, 0, 0, 0, 
416, 0, 0, 0, 0, 0, 0, 0, 0, 0, 274, 15, 0, 461, 125, 80, 79, 0, 71, -1, 13, 0, 187, 0, 0, 0, 0, 0, 0, 0, 211, 26, 391, 
104, 0, 0, 187, 167, 0, 0, 0, 0, 0, 0, 0, 227, 222, 0, 314, 0, 0, 354, 13, -1, 479, 137, 112, 0, 0, 350, 44, 0, 235, 0, 0, 310, 
0, 0, 0, 0, 0, 0, 0, 271, 384, 0, 0, 189, 161, 0, 5, 214, 0, 49, 275, 0, 479, -1, 0, 0, 36, 0, 329, 452, 0, 0, 417, 26, 382, 
0, 0, 0, 151, 65, 0, 66, 0, 0, 0, 0, 293, 0, 61, 0, 0, 0, 68, 445, 187, 137, 0, -1, 234, 264, 332, 0, 0, 158, 0, 98, 212, 394, 
0, 19, 0, 0, 74, 0, 243, 0, 0, 25, 276, 442, 196, 0, 0, 0, 87, 0, 312, 0, 112, 0, 234, -1, 182, 0, 286, 67, 0, 446, 235, 25, 0, 
431, 76, 0, 287, 0, 23, 0, 141, 0, 448, 11, 157, 0, 0, 341, 74, 404, 190, 82, 0, 0, 36, 264, 182, -1, 0, 127, 0, 402, 425, 267, 58, 0, 
0, 312, 0, 0, 0, 44, 0, 198, 0, 57, 0, 426, 480, 0, 0, 295, 61, 0, 51, 0, 0, 0, 332, 0, 0, -1, 190, 498, 177, 187, 70, 0, 0, 
0, 0, 0, 24, 356, 315, 60, 24, 189, 240, 376, 0, 166, 35, 0, 388, 480, 25, 399, 0, 350, 329, 0, 286, 127, 190, -1, 0, 438, 0, 0, 6, 60, 
297, 334, 0, 293, 0, 90, 0, 138, 327, 41, 174, 0, 0, 59, 0, 0, 0, 102, 337, 0, 44, 452, 0, 67, 0, 498, 0, -1, 287, 0, 0, 0, 0, 
0, 137, 323, 0, 168, 293, 0, 4, 0, 329, 0, 0, 395, 0, 0, 454, 351, 8, 0, 0, 0, 0, 158, 0, 402, 177, 438, 287, -1, 293, 224, 0, 0, 
81, 0, 0, 0, 0, 0, 28, 0, 0, 0, 333, 0, 0, 0, 7, 0, 202, 295, 358, 0, 235, 0, 0, 446, 425, 187, 0, 0, 293, -1, 269, 355, 0, 
340, 0, 0, 307, 71, 0, 153, 344, 9, 20, 0, 22, 186, 0, 157, 0, 0, 0, 0, 211, 0, 417, 98, 235, 267, 70, 0, 0, 224, 269, -1, 53, 0, 
0, 90, 23, 0, 0, 0, 0, 392, 154, 269, 98, 0, 0, 328, 88, 0, 351, 179, 0, 26, 0, 26, 212, 25, 58, 0, 6, 0, 0, 355, 53, -1, 0, 
0, 0, 0, 172, 249, 249, 0, 349, 0, 0, 0, 0, 0, 79, 0, 0, 25, 44, 0, 391, 310, 382, 394, 0, 0, 0, 60, 0, 0, 0, 0, 0, -1]